(set-info :smt-lib-version 2.6)
(set-logic AUFBVFPDTNIRA)
(set-info :source |
Generated by: AdaCore
Generated on: 2020-03-06
Generator: SPARK
Application: Program verification for Ada
Target solver: CVC4
|)
(set-info :license "https://creativecommons.org/licenses/by/4.0/")
(set-info :category "industrial")
(set-info :status unknown)
;;; generated by SMT-LIB2 driver
;;; SMT-LIB2 driver: bit-vectors, common part
;;; SMT-LIB2: integer arithmetic
(declare-sort string 0)

(declare-datatypes ((tuple0 0))
(((Tuple0))))
(declare-sort us_private 0)

(declare-fun private__bool_eq (us_private us_private) Bool)

(declare-const us_null_ext__ us_private)

(declare-sort us_type_of_heap 0)

(declare-datatypes ((us_type_of_heap__ref 0))
(((us_type_of_heap__refqtmk (us_type_of_heap__content us_type_of_heap)))))
(declare-sort us_image 0)

(declare-datatypes ((int__ref 0))
(((int__refqtmk (int__content Int)))))
(declare-datatypes ((bool__ref 0))
(((bool__refqtmk (bool__content Bool)))))
(declare-datatypes ((us_fixed__ref 0))
(((us_fixed__refqtmk (us_fixed__content Int)))))
(declare-datatypes ((real__ref 0))
(((real__refqtmk (real__content Real)))))
(declare-datatypes ((us_private__ref 0))
(((us_private__refqtmk (us_private__content us_private)))))
(define-fun int__ref___projection ((a int__ref)) Int (int__content a))

(define-fun us_fixed__ref___projection ((a us_fixed__ref)) Int (us_fixed__content
                                                               a))

(define-fun bool__ref___projection ((a bool__ref)) Bool (bool__content a))

(define-fun real__ref___projection ((a real__ref)) Real (real__content a))

(define-fun us_private__ref___projection ((a us_private__ref)) us_private 
  (us_private__content a))

(declare-sort positive 0)

(declare-fun positiveqtint (positive) Int)

;; positive'axiom
  (assert
  (forall ((i positive))
  (and (<= 1 (positiveqtint i)) (<= (positiveqtint i) 2147483647))))

(define-fun in_range ((x Int)) Bool (and (<= 1 x) (<= x 2147483647)))

(declare-fun attr__ATTRIBUTE_IMAGE (Int) us_image)

(declare-fun attr__ATTRIBUTE_VALUE__pre_check (us_image) Bool)

(declare-fun attr__ATTRIBUTE_VALUE (us_image) Int)

(declare-fun user_eq (positive positive) Bool)

(declare-const dummy positive)

(declare-datatypes ((positive__ref 0))
(((positive__refqtmk (positive__content positive)))))
(define-fun positive__ref_positive__content__projection ((a positive__ref)) positive 
  (positive__content a))

(declare-sort integer 0)

(declare-fun integerqtint (integer) Int)

;; integer'axiom
  (assert
  (forall ((i integer))
  (and (<= (- 2147483648) (integerqtint i)) (<= (integerqtint i) 2147483647))))

(define-fun in_range1 ((x Int)) Bool (and (<= (- 2147483648) x)
                                     (<= x 2147483647)))

(declare-fun attr__ATTRIBUTE_IMAGE1 (Int) us_image)

(declare-fun attr__ATTRIBUTE_VALUE__pre_check1 (us_image) Bool)

(declare-fun attr__ATTRIBUTE_VALUE1 (us_image) Int)

(declare-fun user_eq1 (integer integer) Bool)

(declare-const dummy1 integer)

(declare-datatypes ((integer__ref 0))
(((integer__refqtmk (integer__content integer)))))
(define-fun integer__ref_integer__content__projection ((a integer__ref)) integer 
  (integer__content a))

(define-fun to_rep ((x integer)) Int (integerqtint x))

(declare-fun of_rep (Int) integer)

;; inversion_axiom
  (assert
  (forall ((x integer)) (! (= (of_rep (to_rep x)) x) :pattern ((to_rep x)) )))

;; range_axiom
  (assert
  (forall ((x integer)) (! (in_range1 (to_rep x)) :pattern ((to_rep x)) )))

;; coerce_axiom
  (assert
  (forall ((x Int))
  (! (=> (in_range1 x) (= (to_rep (of_rep x)) x)) :pattern ((to_rep
                                                            (of_rep x))) )))

(declare-sort natural 0)

(declare-fun naturalqtint (natural) Int)

;; natural'axiom
  (assert
  (forall ((i natural))
  (and (<= 0 (naturalqtint i)) (<= (naturalqtint i) 2147483647))))

(define-fun in_range2 ((x Int)) Bool (and (<= 0 x) (<= x 2147483647)))

(declare-fun attr__ATTRIBUTE_IMAGE2 (Int) us_image)

(declare-fun attr__ATTRIBUTE_VALUE__pre_check2 (us_image) Bool)

(declare-fun attr__ATTRIBUTE_VALUE2 (us_image) Int)

(declare-fun user_eq2 (natural natural) Bool)

(declare-const dummy2 natural)

(declare-datatypes ((natural__ref 0))
(((natural__refqtmk (natural__content natural)))))
(define-fun natural__ref_natural__content__projection ((a natural__ref)) natural 
  (natural__content a))

(define-fun to_rep1 ((x natural)) Int (naturalqtint x))

(declare-fun of_rep1 (Int) natural)

;; inversion_axiom
  (assert
  (forall ((x natural))
  (! (= (of_rep1 (to_rep1 x)) x) :pattern ((to_rep1 x)) )))

;; range_axiom
  (assert
  (forall ((x natural)) (! (in_range2 (to_rep1 x)) :pattern ((to_rep1 x)) )))

;; coerce_axiom
  (assert
  (forall ((x Int))
  (! (=> (in_range2 x) (= (to_rep1 (of_rep1 x)) x)) :pattern ((to_rep1
                                                              (of_rep1 x))) )))

(declare-datatypes ((map__ref 0))
(((map__refqtmk (map__content (Array Int natural))))))
(declare-fun slide ((Array Int natural) Int Int) (Array Int natural))

;; slide_eq
  (assert
  (forall ((a (Array Int natural)))
  (forall ((first Int))
  (! (= (slide a first first) a) :pattern ((slide a first first)) ))))

;; slide_def
  (assert
  (forall ((a (Array Int natural)))
  (forall ((old_first Int))
  (forall ((new_first Int))
  (forall ((i Int))
  (! (= (select (slide a old_first new_first) i) (select a (- i (- new_first old_first)))) :pattern ((select 
  (slide a old_first new_first) i)) ))))))

(define-fun bool_eq ((a (Array Int natural)) (a__first Int) (a__last Int)
  (b (Array Int natural)) (b__first Int)
  (b__last Int)) Bool (ite (and
                           (ite (<= a__first a__last)
                           (and (<= b__first b__last)
                           (= (- a__last a__first) (- b__last b__first)))
                           (< b__last b__first))
                           (forall ((temp___idx_154 Int))
                           (=>
                           (and (<= a__first temp___idx_154)
                           (<= temp___idx_154 a__last))
                           (= (to_rep1 (select a temp___idx_154)) (to_rep1
                                                                  (select b (+ (- b__first a__first) temp___idx_154)))))))
                      true false))

;; bool_eq_rev
  (assert
  (forall ((a (Array Int natural)) (b (Array Int natural)))
  (forall ((a__first Int) (a__last Int) (b__first Int) (b__last Int))
  (=> (= (bool_eq b b__first b__last a a__first a__last) true)
  (and
  (ite (<= a__first a__last)
  (and (<= b__first b__last) (= (- a__last a__first) (- b__last b__first)))
  (< b__last b__first))
  (forall ((temp___idx_154 Int))
  (=> (and (<= a__first temp___idx_154) (<= temp___idx_154 a__last))
  (= (to_rep1 (select a temp___idx_154)) (to_rep1
                                         (select b (+ (- b__first a__first) temp___idx_154)))))))))))

(declare-const xx__first integer)

(declare-const xx__last integer)

(declare-const attr__ATTRIBUTE_ADDRESS Int)

(declare-const yy__first integer)

(declare-const yy__last integer)

(declare-const attr__ATTRIBUTE_ADDRESS1 Int)

(declare-fun compare ((Array Int natural) Int Int (Array Int natural) Int
  Int) Int)

;; compare_def_eq
  (assert
  (forall ((a (Array Int natural)) (b (Array Int natural)))
  (forall ((a_first Int) (a_last Int) (b_first Int) (b_last Int))
  (! (= (= (compare a a_first a_last b b_first b_last) 0)
     (= (bool_eq a a_first a_last b b_first b_last) true)) :pattern (
  (compare a a_first a_last b b_first b_last)) ))))

;; compare_def_lt
  (assert
  (forall ((a (Array Int natural)) (b (Array Int natural)))
  (forall ((a_first Int) (a_last Int) (b_first Int) (b_last Int))
  (! (= (< (compare a a_first a_last b b_first b_last) 0)
     (exists ((i Int) (j Int))
     (and (<= i a_last)
     (and (< j b_last)
     (and (= (bool_eq a a_first i b b_first j) true)
     (or (= i a_last)
     (and (< i a_last)
     (< (to_rep1 (select a (+ i 1))) (to_rep1 (select b (+ j 1))))))))))) :pattern (
  (compare a a_first a_last b b_first b_last)) ))))

;; compare_def_gt
  (assert
  (forall ((a (Array Int natural)) (b (Array Int natural)))
  (forall ((a_first Int) (a_last Int) (b_first Int) (b_last Int))
  (! (= (< 0 (compare a a_first a_last b b_first b_last))
     (exists ((i Int) (j Int))
     (and (<= i b_last)
     (and (< j a_last)
     (and (= (bool_eq a a_first j b b_first i) true)
     (or (= i b_last)
     (and (< i b_last)
     (< (to_rep1 (select b (+ i 1))) (to_rep1 (select a (+ j 1))))))))))) :pattern (
  (compare a a_first a_last b b_first b_last)) ))))

(declare-sort t 0)

(declare-fun first (t) integer)

(declare-fun last (t) integer)

(declare-fun mk (Int Int) t)

;; mk_def
  (assert
  (forall ((f Int) (l Int))
  (! (=> (in_range1 f)
     (=> (in_range1 l)
     (and (= (to_rep (first (mk f l))) f) (= (to_rep (last (mk f l))) l)))) :pattern (
  (mk f l)) )))

(define-fun dynamic_property ((range_first Int) (range_last Int) (low Int)
  (high Int)) Bool (and (in_range1 low)
                   (and (in_range1 high)
                   (=> (<= low high) (and (in_range low) (in_range high))))))

(declare-datatypes ((us_t 0))
(((us_tqtmk (elts (Array Int natural))(rt t)))))
(define-fun to_array ((a us_t)) (Array Int natural) (elts a))

(define-fun of_array ((a (Array Int natural)) (f Int)
  (l Int)) us_t (us_tqtmk a (mk f l)))

(define-fun first1 ((a us_t)) Int (to_rep (first (rt a))))

(define-fun last1 ((a us_t)) Int (to_rep (last (rt a))))

(define-fun length ((a us_t)) Int (ite (<= (first1 a) (last1 a))
                                  (+ (- (last1 a) (first1 a)) 1) 0))

(declare-const value__size Int)

(declare-const object__size Int)

(declare-const component__size Int)

(declare-const alignment Int)

;; value__size_axiom
  (assert (<= 0 value__size))

;; object__size_axiom
  (assert (<= 0 object__size))

;; component__size_axiom
  (assert (<= 0 component__size))

;; alignment_axiom
  (assert (<= 0 alignment))

(define-fun bool_eq1 ((x us_t)
  (y us_t)) Bool (bool_eq (elts x) (to_rep (first (rt x)))
                 (to_rep (last (rt x))) (elts y) (to_rep (first (rt y)))
                 (to_rep (last (rt y)))))

(declare-fun user_eq3 (us_t us_t) Bool)

(declare-const dummy3 us_t)

(declare-datatypes ((nat_array__ref 0))
(((nat_array__refqtmk (nat_array__content us_t)))))
(define-fun nat_array__ref_nat_array__content__projection ((a nat_array__ref)) us_t 
  (nat_array__content a))

(declare-sort t3s 0)

(declare-fun t3sqtint (t3s) Int)

;; t3s'axiom
  (assert (forall ((i t3s)) (and (<= 1 (t3sqtint i)) (<= (t3sqtint i) 2))))

(define-fun in_range3 ((x Int)) Bool (and (<= 1 x) (<= x 2)))

(declare-fun attr__ATTRIBUTE_IMAGE3 (Int) us_image)

(declare-fun attr__ATTRIBUTE_VALUE__pre_check3 (us_image) Bool)

(declare-fun attr__ATTRIBUTE_VALUE3 (us_image) Int)

(declare-fun user_eq4 (t3s t3s) Bool)

(declare-const dummy4 t3s)

(declare-datatypes ((t3s__ref 0))
(((t3s__refqtmk (t3s__content t3s)))))
(define-fun t3s__ref_t3s__content__projection ((a t3s__ref)) t3s (t3s__content
                                                                 a))

(declare-sort t5s 0)

(declare-fun t5sqtint (t5s) Int)

;; t5s'axiom
  (assert (forall ((i t5s)) (and (<= 1 (t5sqtint i)) (<= (t5sqtint i) 3))))

(define-fun in_range4 ((x Int)) Bool (and (<= 1 x) (<= x 3)))

(declare-fun attr__ATTRIBUTE_IMAGE4 (Int) us_image)

(declare-fun attr__ATTRIBUTE_VALUE__pre_check4 (us_image) Bool)

(declare-fun attr__ATTRIBUTE_VALUE4 (us_image) Int)

(declare-fun user_eq5 (t5s t5s) Bool)

(declare-const dummy5 t5s)

(declare-datatypes ((t5s__ref 0))
(((t5s__refqtmk (t5s__content t5s)))))
(define-fun t5s__ref_t5s__content__projection ((a t5s__ref)) t5s (t5s__content
                                                                 a))

(declare-sort t8s 0)

(declare-fun t8sqtint (t8s) Int)

;; t8s'axiom
  (assert (forall ((i t8s)) (and (<= 1 (t8sqtint i)) (<= (t8sqtint i) 2))))

(define-fun in_range5 ((x Int)) Bool (and (<= 1 x) (<= x 2)))

(declare-fun attr__ATTRIBUTE_IMAGE5 (Int) us_image)

(declare-fun attr__ATTRIBUTE_VALUE__pre_check5 (us_image) Bool)

(declare-fun attr__ATTRIBUTE_VALUE5 (us_image) Int)

(declare-fun user_eq6 (t8s t8s) Bool)

(declare-const dummy6 t8s)

(declare-datatypes ((t8s__ref 0))
(((t8s__refqtmk (t8s__content t8s)))))
(define-fun t8s__ref_t8s__content__projection ((a t8s__ref)) t8s (t8s__content
                                                                 a))

(declare-fun array_comp__xx__aggregate_def (Int Int) (Array Int natural))

(declare-fun array_comp__yy__aggregate_def (Int Int Int) (Array Int natural))

(define-fun dynamic_invariant ((temp___expr_39 Int) (temp___is_init_35 Bool)
  (temp___skip_constant_36 Bool) (temp___do_toplevel_37 Bool)
  (temp___do_typ_inv_38 Bool)) Bool (=>
                                    (or (= temp___is_init_35 true)
                                    (<= 0 2147483647)) (in_range2
                                    temp___expr_39)))

(define-fun dynamic_invariant1 ((temp___expr_46 Int) (temp___is_init_42 Bool)
  (temp___skip_constant_43 Bool) (temp___do_toplevel_44 Bool)
  (temp___do_typ_inv_45 Bool)) Bool (=>
                                    (or (= temp___is_init_42 true)
                                    (<= 1 2147483647)) (in_range
                                    temp___expr_46)))

(define-fun dynamic_invariant2 ((temp___expr_18 Int) (temp___is_init_14 Bool)
  (temp___skip_constant_15 Bool) (temp___do_toplevel_16 Bool)
  (temp___do_typ_inv_17 Bool)) Bool (=>
                                    (or (= temp___is_init_14 true)
                                    (<= (- 2147483648) 2147483647))
                                    (in_range1 temp___expr_18)))

(define-fun dynamic_invariant3 ((temp___expr_159 us_t)
  (temp___is_init_155 Bool) (temp___skip_constant_156 Bool)
  (temp___do_toplevel_157 Bool)
  (temp___do_typ_inv_158 Bool)) Bool (=>
                                     (not (= temp___skip_constant_156 true))
                                     (dynamic_property 1 2147483647
                                     (first1 temp___expr_159)
                                     (last1 temp___expr_159))))

(declare-const rliteral natural)

;; rliteral_axiom
  (assert (= (naturalqtint rliteral) 1))

(declare-const rliteral1 natural)

;; rliteral_axiom
  (assert (= (naturalqtint rliteral1) 0))

;; def_axiom
  (assert
  (forall ((temp___164 Int) (temp___165 Int))
  (let ((temp___163 (array_comp__xx__aggregate_def temp___164 temp___165)))
  (=>
  (and (dynamic_invariant temp___164 true true true true) (dynamic_invariant
  temp___165 true true true true))
  (and (= (select temp___163 1) rliteral)
  (= (select temp___163 2) rliteral1))))))

;; def_axiom
  (assert
  (forall ((temp___169 Int) (temp___170 Int) (temp___171 Int))
  (let ((temp___168 (array_comp__yy__aggregate_def temp___169 temp___170
                    temp___171)))
  (=>
  (and
  (and (dynamic_invariant temp___169 true true true true) (dynamic_invariant
  temp___170 true true true true)) (dynamic_invariant temp___171 true true
  true true))
  (and
  (and (= (select temp___168 1) rliteral)
  (= (select temp___168 2) rliteral1)) (= (select temp___168 3) rliteral))))))

(assert
;; defqtvc
 ;; File "array_comp.ads", line 1, characters 0-0
  (not
  (let ((array_comp__xx__assume (of_array (array_comp__xx__aggregate_def 1 0)
                                1 2)))
  (forall ((xx (Array Int natural)))
  (=> (= xx (to_array array_comp__xx__assume))
  (=> (= (to_rep xx__first) (first1 array_comp__xx__assume))
  (=> (= (to_rep xx__last) (last1 array_comp__xx__assume))
  (=> (dynamic_property 1 2147483647 (to_rep xx__first) (to_rep xx__last))
  (let ((array_comp__yy__assume (of_array
                                (array_comp__yy__aggregate_def 1 0 1) 1 3)))
  (forall ((yy (Array Int natural)))
  (=> (= yy (to_array array_comp__yy__assume))
  (=> (= (to_rep yy__first) (first1 array_comp__yy__assume))
  (=> (= (to_rep yy__last) (last1 array_comp__yy__assume))
  (=> (dynamic_property 1 2147483647 (to_rep yy__first) (to_rep yy__last))
  (< (compare yy 1 2 xx (to_rep xx__first) (to_rep xx__last)) 0)))))))))))))))
(check-sat)
(exit)
